p cnf 289 1
289 0
w 1 0.610908
w 2 1 0.778051
w 2 -1 0.397571
w 3 2 1
w 3 -2 0
w 4 3 0
w 4 -3 1
w 5 4 0.0362555
w 5 -4 0.698695
w 6 5 0
w 6 -5 1
w 7 6 0
w 7 -6 1
w 8 7 0.295422
w 8 -7 0.125235
w 9 8 1
w 9 -8 0
w 10 9 0
w 10 -9 1
w 11 10 0.0129658
w 11 -10 0.0656815
w 12 11 1
w 12 -11 0
w 13 12 0.531861
w 13 -12 0.18112
w 14 13 0.142769
w 14 -13 0.746841
w 15 14 0
w 15 -14 1
w 16 15 0.989357
w 16 -15 0.647911
w 17 16 0
w 17 -16 1
w 18 1 0.922627
w 18 -1 0.970597
w 19 18 2 0.328802
w 19 18 -2 0.456531
w 19 -18 2 0.417886
w 19 -18 -2 0.624225
w 20 19 3 0.641924
w 20 19 -3 0.244399
w 20 -19 3 0.608482
w 20 -19 -3 0.900491
w 21 20 4 0
w 21 20 -4 0
w 21 -20 4 0
w 21 -20 -4 1
w 22 21 5 0.669431
w 22 21 -5 0.840824
w 22 -21 5 0.483871
w 22 -21 -5 0.8122
w 23 22 6 0.818715
w 23 22 -6 0.352541
w 23 -22 6 0.359748
w 23 -22 -6 0.808072
w 24 23 7 0
w 24 23 -7 0
w 24 -23 7 0
w 24 -23 -7 1
w 25 24 8 0.522812
w 25 24 -8 0.835109
w 25 -24 8 0.983095
w 25 -24 -8 0.940698
w 26 25 9 1
w 26 25 -9 0
w 26 -25 9 1
w 26 -25 -9 0
w 27 26 10 0
w 27 26 -10 0
w 27 -26 10 0
w 27 -26 -10 1
w 28 27 11 0
w 28 27 -11 1
w 28 -27 11 0
w 28 -27 -11 1
w 29 28 12 0.678948
w 29 28 -12 0.707757
w 29 -28 12 0.24273
w 29 -28 -12 0.48702
w 30 29 13 0.82641
w 30 29 -13 0.0429873
w 30 -29 13 0.392828
w 30 -29 -13 0.332716
w 31 30 14 0.91564
w 31 30 -14 0.167825
w 31 -30 14 0.552646
w 31 -30 -14 0.856338
w 32 31 15 0.117506
w 32 31 -15 0.438959
w 32 -31 15 0.330892
w 32 -31 -15 0.290849
w 33 32 16 0.0669066
w 33 32 -16 0.0856393
w 33 -32 16 0.371356
w 33 -32 -16 0.940491
w 34 33 17 0.747718
w 34 33 -17 0.483507
w 34 -33 17 0.83545
w 34 -33 -17 0.607951
w 35 18 0.718432
w 35 -18 0.286899
w 36 35 19 0.961162
w 36 35 -19 0.773919
w 36 -35 19 0.254688
w 36 -35 -19 0.787572
w 37 36 20 0.647516
w 37 36 -20 0.120288
w 37 -36 20 0.386457
w 37 -36 -20 0.563157
w 38 37 21 0
w 38 37 -21 0
w 38 -37 21 1
w 38 -37 -21 1
w 39 38 22 0.246165
w 39 38 -22 0.347458
w 39 -38 22 0.780525
w 39 -38 -22 0.313071
w 40 39 23 0
w 40 39 -23 0
w 40 -39 23 1
w 40 -39 -23 1
w 41 40 24 0.808681
w 41 40 -24 0.507549
w 41 -40 24 0.575792
w 41 -40 -24 0.527113
w 42 41 25 0.122271
w 42 41 -25 0.488275
w 42 -41 25 0.568368
w 42 -41 -25 0.376959
w 43 42 26 1
w 43 42 -26 1
w 43 -42 26 0
w 43 -42 -26 0
w 44 43 27 0.684249
w 44 43 -27 0.710835
w 44 -43 27 0.00712636
w 44 -43 -27 0.599523
w 45 44 28 0.86558
w 45 44 -28 0.845687
w 45 -44 28 0.114902
w 45 -44 -28 0.646105
w 46 45 29 1
w 46 45 -29 0
w 46 -45 29 0
w 46 -45 -29 1
w 47 46 30 0.149391
w 47 46 -30 0.329911
w 47 -46 30 0.205134
w 47 -46 -30 0.725182
w 48 47 31 0.999583
w 48 47 -31 0.847453
w 48 -47 31 0.345299
w 48 -47 -31 0.567951
w 49 48 32 0
w 49 48 -32 1
w 49 -48 32 1
w 49 -48 -32 0
w 50 49 33 0.836519
w 50 49 -33 0.701531
w 50 -49 33 0.435791
w 50 -49 -33 0.843645
w 51 50 34 1
w 51 50 -34 0
w 51 -50 34 1
w 51 -50 -34 0
w 52 35 1
w 52 -35 0
w 53 52 36 0.153317
w 53 52 -36 0.717822
w 53 -52 36 0.387367
w 53 -52 -36 0.850902
w 54 53 37 0.717278
w 54 53 -37 0.0560361
w 54 -53 37 0.592394
w 54 -53 -37 0.574301
w 55 54 38 0
w 55 54 -38 0
w 55 -54 38 1
w 55 -54 -38 0
w 56 55 39 0.576795
w 56 55 -39 0.913146
w 56 -55 39 0.558029
w 56 -55 -39 0.301752
w 57 56 40 0.25956
w 57 56 -40 0.737543
w 57 -56 40 0.593309
w 57 -56 -40 0.560614
w 58 57 41 0.302534
w 58 57 -41 0.707356
w 58 -57 41 0.258916
w 58 -57 -41 0.657865
w 59 58 42 1
w 59 58 -42 0
w 59 -58 42 0
w 59 -58 -42 0
w 60 59 43 0.59789
w 60 59 -43 0.229697
w 60 -59 43 0.718119
w 60 -59 -43 0.190285
w 61 60 44 0.773738
w 61 60 -44 0.630132
w 61 -60 44 0.723599
w 61 -60 -44 0.397308
w 62 61 45 1
w 62 61 -45 1
w 62 -61 45 0
w 62 -61 -45 1
w 63 62 46 0
w 63 62 -46 0
w 63 -62 46 0
w 63 -62 -46 1
w 64 63 47 0.954176
w 64 63 -47 0.853044
w 64 -63 47 0.349906
w 64 -63 -47 0.213091
w 65 64 48 0.362762
w 65 64 -48 0.338144
w 65 -64 48 0.32209
w 65 -64 -48 0.0934394
w 66 65 49 0.984173
w 66 65 -49 0.69133
w 66 -65 49 0.0802608
w 66 -65 -49 0.702292
w 67 66 50 0.884259
w 67 66 -50 0.47603
w 67 -66 50 0.511746
w 67 -66 -50 0.607859
w 68 67 51 0.806137
w 68 67 -51 0.872205
w 68 -67 51 0.847441
w 68 -67 -51 0.0136733
w 69 52 0.123295
w 69 -52 0.970874
w 70 69 53 0.136692
w 70 69 -53 0.521384
w 70 -69 53 0.419065
w 70 -69 -53 0.090868
w 71 70 54 0
w 71 70 -54 1
w 71 -70 54 0
w 71 -70 -54 0
w 72 71 55 0.207426
w 72 71 -55 0.225172
w 72 -71 55 0.492667
w 72 -71 -55 0.191599
w 73 72 56 0.572928
w 73 72 -56 0.893891
w 73 -72 56 0.798116
w 73 -72 -56 0.457187
w 74 73 57 1
w 74 73 -57 1
w 74 -73 57 1
w 74 -73 -57 0
w 75 74 58 0.0906986
w 75 74 -58 0.129672
w 75 -74 58 0.63183
w 75 -74 -58 0.213994
w 76 75 59 0
w 76 75 -59 1
w 76 -75 59 1
w 76 -75 -59 1
w 77 76 60 1
w 77 76 -60 0
w 77 -76 60 1
w 77 -76 -60 0
w 78 77 61 0.387617
w 78 77 -61 0.0891197
w 78 -77 61 0.953287
w 78 -77 -61 0.880284
w 79 78 62 0
w 79 78 -62 0
w 79 -78 62 0
w 79 -78 -62 1
w 80 79 63 0.544529
w 80 79 -63 0.977766
w 80 -79 63 0.975445
w 80 -79 -63 0.787787
w 81 80 64 0
w 81 80 -64 0
w 81 -80 64 1
w 81 -80 -64 0
w 82 81 65 0
w 82 81 -65 1
w 82 -81 65 0
w 82 -81 -65 1
w 83 82 66 0.884719
w 83 82 -66 0.94227
w 83 -82 66 0.376665
w 83 -82 -66 0.630233
w 84 83 67 0.10478
w 84 83 -67 0.0178493
w 84 -83 67 0.913084
w 84 -83 -67 0.0580669
w 85 84 68 0.193802
w 85 84 -68 0.927856
w 85 -84 68 0.351345
w 85 -84 -68 0.368411
w 86 69 0.261744
w 86 -69 0.912941
w 87 86 70 0.237189
w 87 86 -70 0.700728
w 87 -86 70 0.667292
w 87 -86 -70 0.149885
w 88 87 71 0.890729
w 88 87 -71 0.694411
w 88 -87 71 0.671694
w 88 -87 -71 0.214712
w 89 88 72 0.11486
w 89 88 -72 0.160625
w 89 -88 72 0.427565
w 89 -88 -72 0.999579
w 90 89 73 0
w 90 89 -73 0
w 90 -89 73 0
w 90 -89 -73 1
w 91 90 74 0.967077
w 91 90 -74 0.545794
w 91 -90 74 0.0337452
w 91 -90 -74 0.894933
w 92 91 75 0.402157
w 92 91 -75 0.490693
w 92 -91 75 0.158884
w 92 -91 -75 0.315097
w 93 92 76 1
w 93 92 -76 0
w 93 -92 76 0
w 93 -92 -76 0
w 94 93 77 0.62224
w 94 93 -77 0.240369
w 94 -93 77 0.266734
w 94 -93 -77 0.836952
w 95 94 78 0.381594
w 95 94 -78 0.997577
w 95 -94 78 0.315217
w 95 -94 -78 0.381172
w 96 95 79 1
w 96 95 -79 0
w 96 -95 79 1
w 96 -95 -79 1
w 97 96 80 0.867275
w 97 96 -80 0.995535
w 97 -96 80 0.204438
w 97 -96 -80 0.90102
w 98 97 81 0.101578
w 98 97 -81 0.303176
w 98 -97 81 0.38116
w 98 -97 -81 0.260461
w 99 98 82 0.44538
w 99 98 -82 0.656534
w 99 -98 82 0.634099
w 99 -98 -82 0.176891
w 100 99 83 1
w 100 99 -83 1
w 100 -99 83 0
w 100 -99 -83 0
w 101 100 84 0.330513
w 101 100 -84 0.877467
w 101 -100 84 0.633661
w 101 -100 -84 0.64573
w 102 101 85 1
w 102 101 -85 0
w 102 -101 85 0
w 102 -101 -85 0
w 103 86 0.928268
w 103 -86 0.628741
w 104 103 87 0.132706
w 104 103 -87 0.52976
w 104 -103 87 0.679636
w 104 -103 -87 0.234284
w 105 104 88 0.0607966
w 105 104 -88 0.494745
w 105 -104 88 0.451211
w 105 -104 -88 0.506176
w 106 105 89 1
w 106 105 -89 1
w 106 -105 89 1
w 106 -105 -89 0
w 107 106 90 1
w 107 106 -90 1
w 107 -106 90 0
w 107 -106 -90 1
w 108 107 91 0.751945
w 108 107 -91 0.772876
w 108 -107 91 0.94643
w 108 -107 -91 0.486078
w 109 108 92 0.216054
w 109 108 -92 0.247544
w 109 -108 92 0.331687
w 109 -108 -92 0.144321
w 110 109 93 0.120857
w 110 109 -93 0.277028
w 110 -109 93 0.406045
w 110 -109 -93 0.800493
w 111 110 94 0.238982
w 111 110 -94 0.861289
w 111 -110 94 0.00605621
w 111 -110 -94 0.690193
w 112 111 95 1
w 112 111 -95 1
w 112 -111 95 1
w 112 -111 -95 0
w 113 112 96 1
w 113 112 -96 0
w 113 -112 96 0
w 113 -112 -96 1
w 114 113 97 1
w 114 113 -97 1
w 114 -113 97 0
w 114 -113 -97 0
w 115 114 98 0.745814
w 115 114 -98 0.750551
w 115 -114 98 0.136583
w 115 -114 -98 0.0775015
w 116 115 99 0.0128682
w 116 115 -99 0.198358
w 116 -115 99 0.1719
w 116 -115 -99 0.418913
w 117 116 100 0.683211
w 117 116 -100 0.657896
w 117 -116 100 0.86014
w 117 -116 -100 0.689267
w 118 117 101 1
w 118 117 -101 1
w 118 -117 101 0
w 118 -117 -101 0
w 119 118 102 1
w 119 118 -102 1
w 119 -118 102 1
w 119 -118 -102 0
w 120 103 1
w 120 -103 0
w 121 120 104 0.86485
w 121 120 -104 0.308096
w 121 -120 104 0.236384
w 121 -120 -104 0.753889
w 122 121 105 0
w 122 121 -105 1
w 122 -121 105 0
w 122 -121 -105 0
w 123 122 106 0.329769
w 123 122 -106 0.053706
w 123 -122 106 0.322254
w 123 -122 -106 0.32862
w 124 123 107 0.98015
w 124 123 -107 0.188761
w 124 -123 107 0.426184
w 124 -123 -107 0.328238
w 125 124 108 0
w 125 124 -108 1
w 125 -124 108 1
w 125 -124 -108 1
w 126 125 109 0.295945
w 126 125 -109 0.779194
w 126 -125 109 0.967269
w 126 -125 -109 0.396279
w 127 126 110 0
w 127 126 -110 0
w 127 -126 110 1
w 127 -126 -110 0
w 128 127 111 0.47648
w 128 127 -111 0.889696
w 128 -127 111 0.586206
w 128 -127 -111 0.37982
w 129 128 112 0
w 129 128 -112 0
w 129 -128 112 1
w 129 -128 -112 1
w 130 129 113 0.736846
w 130 129 -113 0.803013
w 130 -129 113 0.010462
w 130 -129 -113 0.153212
w 131 130 114 0
w 131 130 -114 1
w 131 -130 114 0
w 131 -130 -114 0
w 132 131 115 0
w 132 131 -115 1
w 132 -131 115 0
w 132 -131 -115 0
w 133 132 116 0
w 133 132 -116 0
w 133 -132 116 1
w 133 -132 -116 0
w 134 133 117 0.809806
w 134 133 -117 0.214974
w 134 -133 117 0.750875
w 134 -133 -117 0.396012
w 135 134 118 0.97034
w 135 134 -118 0.0359235
w 135 -134 118 0.296869
w 135 -134 -118 0.518425
w 136 135 119 1
w 136 135 -119 0
w 136 -135 119 1
w 136 -135 -119 0
w 137 120 0
w 137 -120 1
w 138 137 121 0
w 138 137 -121 0
w 138 -137 121 1
w 138 -137 -121 0
w 139 138 122 0
w 139 138 -122 0
w 139 -138 122 1
w 139 -138 -122 1
w 140 139 123 1
w 140 139 -123 0
w 140 -139 123 0
w 140 -139 -123 0
w 141 140 124 0.0356228
w 141 140 -124 0.113572
w 141 -140 124 0.185534
w 141 -140 -124 0.630417
w 142 141 125 1
w 142 141 -125 1
w 142 -141 125 1
w 142 -141 -125 0
w 143 142 126 0.849977
w 143 142 -126 0.895933
w 143 -142 126 0.26609
w 143 -142 -126 0.141542
w 144 143 127 1
w 144 143 -127 1
w 144 -143 127 0
w 144 -143 -127 1
w 145 144 128 1
w 145 144 -128 1
w 145 -144 128 0
w 145 -144 -128 1
w 146 145 129 0
w 146 145 -129 1
w 146 -145 129 1
w 146 -145 -129 1
w 147 146 130 0.515916
w 147 146 -130 0.242747
w 147 -146 130 0.630105
w 147 -146 -130 0.599827
w 148 147 131 1
w 148 147 -131 1
w 148 -147 131 1
w 148 -147 -131 0
w 149 148 132 1
w 149 148 -132 0
w 149 -148 132 1
w 149 -148 -132 0
w 150 149 133 0.848152
w 150 149 -133 0.229339
w 150 -149 133 0.63477
w 150 -149 -133 0.979745
w 151 150 134 0
w 151 150 -134 0
w 151 -150 134 0
w 151 -150 -134 1
w 152 151 135 0.604092
w 152 151 -135 0.148489
w 152 -151 135 0.348967
w 152 -151 -135 0.661305
w 153 152 136 1
w 153 152 -136 0
w 153 -152 136 0
w 153 -152 -136 0
w 154 137 0
w 154 -137 1
w 155 154 138 0.466673
w 155 154 -138 0.799442
w 155 -154 138 0.726645
w 155 -154 -138 0.415066
w 156 155 139 1
w 156 155 -139 1
w 156 -155 139 0
w 156 -155 -139 1
w 157 156 140 0.501393
w 157 156 -140 0.880402
w 157 -156 140 0.103185
w 157 -156 -140 0.549824
w 158 157 141 0.0101607
w 158 157 -141 0.886227
w 158 -157 141 0.105832
w 158 -157 -141 0.956783
w 159 158 142 1
w 159 158 -142 0
w 159 -158 142 0
w 159 -158 -142 0
w 160 159 143 1
w 160 159 -143 0
w 160 -159 143 0
w 160 -159 -143 0
w 161 160 144 1
w 161 160 -144 1
w 161 -160 144 1
w 161 -160 -144 0
w 162 161 145 0
w 162 161 -145 1
w 162 -161 145 0
w 162 -161 -145 1
w 163 162 146 0.843056
w 163 162 -146 0.862426
w 163 -162 146 0.648198
w 163 -162 -146 0.39288
w 164 163 147 0.658358
w 164 163 -147 0.279106
w 164 -163 147 0.889667
w 164 -163 -147 0.615142
w 165 164 148 0.143987
w 165 164 -148 0.920892
w 165 -164 148 0.921049
w 165 -164 -148 0.546484
w 166 165 149 1
w 166 165 -149 0
w 166 -165 149 0
w 166 -165 -149 1
w 167 166 150 1
w 167 166 -150 1
w 167 -166 150 0
w 167 -166 -150 1
w 168 167 151 0.0346521
w 168 167 -151 0.139313
w 168 -167 151 0.407612
w 168 -167 -151 0.376315
w 169 168 152 0
w 169 168 -152 1
w 169 -168 152 0
w 169 -168 -152 1
w 170 169 153 0.767598
w 170 169 -153 0.25918
w 170 -169 153 0.891357
w 170 -169 -153 0.657265
w 171 154 0.660782
w 171 -154 0.801252
w 172 171 155 0.581831
w 172 171 -155 0.347736
w 172 -171 155 0.886739
w 172 -171 -155 0.558557
w 173 172 156 0
w 173 172 -156 1
w 173 -172 156 0
w 173 -172 -156 1
w 174 173 157 0
w 174 173 -157 0
w 174 -173 157 1
w 174 -173 -157 1
w 175 174 158 0.255033
w 175 174 -158 0.289298
w 175 -174 158 0.961289
w 175 -174 -158 0.207657
w 176 175 159 0.945052
w 176 175 -159 0.808479
w 176 -175 159 0.120919
w 176 -175 -159 0.71265
w 177 176 160 0
w 177 176 -160 0
w 177 -176 160 1
w 177 -176 -160 1
w 178 177 161 1
w 178 177 -161 0
w 178 -177 161 1
w 178 -177 -161 1
w 179 178 162 0.593903
w 179 178 -162 0.237541
w 179 -178 162 0.772663
w 179 -178 -162 0.912621
w 180 179 163 0.023145
w 180 179 -163 0.790952
w 180 -179 163 0.580872
w 180 -179 -163 0.870566
w 181 180 164 0.420823
w 181 180 -164 0.125599
w 181 -180 164 0.993233
w 181 -180 -164 0.382112
w 182 181 165 0
w 182 181 -165 0
w 182 -181 165 1
w 182 -181 -165 0
w 183 182 166 1
w 183 182 -166 1
w 183 -182 166 1
w 183 -182 -166 0
w 184 183 167 0
w 184 183 -167 0
w 184 -183 167 0
w 184 -183 -167 1
w 185 184 168 0.376491
w 185 184 -168 0.693703
w 185 -184 168 0.750043
w 185 -184 -168 0.149154
w 186 185 169 0.630276
w 186 185 -169 0.172299
w 186 -185 169 0.397277
w 186 -185 -169 0.211148
w 187 186 170 0
w 187 186 -170 1
w 187 -186 170 0
w 187 -186 -170 1
w 188 171 0
w 188 -171 1
w 189 188 172 0.341247
w 189 188 -172 0.643455
w 189 -188 172 0.219166
w 189 -188 -172 0.381062
w 190 189 173 0.854262
w 190 189 -173 0.790792
w 190 -189 173 0.00422183
w 190 -189 -173 0.162417
w 191 190 174 1
w 191 190 -174 0
w 191 -190 174 1
w 191 -190 -174 1
w 192 191 175 0
w 192 191 -175 0
w 192 -191 175 1
w 192 -191 -175 0
w 193 192 176 0
w 193 192 -176 1
w 193 -192 176 1
w 193 -192 -176 1
w 194 193 177 0.634737
w 194 193 -177 0.36445
w 194 -193 177 0.642816
w 194 -193 -177 0.136457
w 195 194 178 0.984063
w 195 194 -178 0.779911
w 195 -194 178 0.179961
w 195 -194 -178 0.365125
w 196 195 179 0.034223
w 196 195 -179 0.155917
w 196 -195 179 0.636981
w 196 -195 -179 0.19664
w 197 196 180 0.529771
w 197 196 -180 0.922102
w 197 -196 180 0.999094
w 197 -196 -180 0.935064
w 198 197 181 1
w 198 197 -181 0
w 198 -197 181 0
w 198 -197 -181 1
w 199 198 182 0.698569
w 199 198 -182 0.104597
w 199 -198 182 0.872775
w 199 -198 -182 0.164842
w 200 199 183 0
w 200 199 -183 1
w 200 -199 183 0
w 200 -199 -183 0
w 201 200 184 0.128386
w 201 200 -184 0.715946
w 201 -200 184 0.879808
w 201 -200 -184 0.493511
w 202 201 185 0
w 202 201 -185 1
w 202 -201 185 1
w 202 -201 -185 1
w 203 202 186 1
w 203 202 -186 0
w 203 -202 186 0
w 203 -202 -186 1
w 204 203 187 1
w 204 203 -187 0
w 204 -203 187 1
w 204 -203 -187 0
w 205 188 1
w 205 -188 0
w 206 205 189 0
w 206 205 -189 0
w 206 -205 189 0
w 206 -205 -189 1
w 207 206 190 0.494469
w 207 206 -190 0.935542
w 207 -206 190 0.931014
w 207 -206 -190 0.194316
w 208 207 191 1
w 208 207 -191 0
w 208 -207 191 0
w 208 -207 -191 0
w 209 208 192 0.206865
w 209 208 -192 0.981352
w 209 -208 192 0.0988268
w 209 -208 -192 0.383898
w 210 209 193 0
w 210 209 -193 0
w 210 -209 193 0
w 210 -209 -193 1
w 211 210 194 0.488253
w 211 210 -194 0.520417
w 211 -210 194 0.176655
w 211 -210 -194 0.90519
w 212 211 195 0.557469
w 212 211 -195 0.194902
w 212 -211 195 0.746378
w 212 -211 -195 0.312886
w 213 212 196 0.741357
w 213 212 -196 0.807355
w 213 -212 196 0.921662
w 213 -212 -196 0.672372
w 214 213 197 1
w 214 213 -197 0
w 214 -213 197 1
w 214 -213 -197 1
w 215 214 198 0
w 215 214 -198 1
w 215 -214 198 1
w 215 -214 -198 0
w 216 215 199 0
w 216 215 -199 0
w 216 -215 199 0
w 216 -215 -199 1
w 217 216 200 0.228743
w 217 216 -200 0.00322206
w 217 -216 200 0.77091
w 217 -216 -200 0.133933
w 218 217 201 0.328379
w 218 217 -201 0.328834
w 218 -217 201 0.300577
w 218 -217 -201 0.641265
w 219 218 202 1
w 219 218 -202 0
w 219 -218 202 0
w 219 -218 -202 1
w 220 219 203 1
w 220 219 -203 1
w 220 -219 203 0
w 220 -219 -203 1
w 221 220 204 0
w 221 220 -204 0
w 221 -220 204 1
w 221 -220 -204 0
w 222 205 0.438143
w 222 -205 0.0471915
w 223 222 206 0
w 223 222 -206 0
w 223 -222 206 1
w 223 -222 -206 1
w 224 223 207 0.707898
w 224 223 -207 0.541308
w 224 -223 207 0.0874171
w 224 -223 -207 0.0362775
w 225 224 208 0.387994
w 225 224 -208 0.677542
w 225 -224 208 0.185097
w 225 -224 -208 0.429928
w 226 225 209 0
w 226 225 -209 0
w 226 -225 209 0
w 226 -225 -209 1
w 227 226 210 1
w 227 226 -210 0
w 227 -226 210 1
w 227 -226 -210 1
w 228 227 211 1
w 228 227 -211 0
w 228 -227 211 1
w 228 -227 -211 0
w 229 228 212 0.788268
w 229 228 -212 0.022575
w 229 -228 212 0.852922
w 229 -228 -212 0.195644
w 230 229 213 0.560821
w 230 229 -213 0.736951
w 230 -229 213 0.64321
w 230 -229 -213 0.597098
w 231 230 214 0.0312041
w 231 230 -214 0.274641
w 231 -230 214 0.792191
w 231 -230 -214 0.461132
w 232 231 215 1
w 232 231 -215 0
w 232 -231 215 0
w 232 -231 -215 0
w 233 232 216 1
w 233 232 -216 0
w 233 -232 216 0
w 233 -232 -216 0
w 234 233 217 1
w 234 233 -217 1
w 234 -233 217 0
w 234 -233 -217 1
w 235 234 218 0.879141
w 235 234 -218 0.732905
w 235 -234 218 0.533319
w 235 -234 -218 0.0747844
w 236 235 219 1
w 236 235 -219 0
w 236 -235 219 0
w 236 -235 -219 0
w 237 236 220 0.965879
w 237 236 -220 0.21102
w 237 -236 220 0.424245
w 237 -236 -220 0.366681
w 238 237 221 0
w 238 237 -221 1
w 238 -237 221 1
w 238 -237 -221 0
w 239 222 0
w 239 -222 1
w 240 239 223 0
w 240 239 -223 1
w 240 -239 223 0
w 240 -239 -223 1
w 241 240 224 0.6947
w 241 240 -224 0.124171
w 241 -240 224 0.185852
w 241 -240 -224 0.573841
w 242 241 225 0.719171
w 242 241 -225 0.648626
w 242 -241 225 0.145775
w 242 -241 -225 0.81331
w 243 242 226 1
w 243 242 -226 0
w 243 -242 226 0
w 243 -242 -226 0
w 244 243 227 0
w 244 243 -227 1
w 244 -243 227 0
w 244 -243 -227 0
w 245 244 228 0.307499
w 245 244 -228 0.604768
w 245 -244 228 0.347618
w 245 -244 -228 0.43009
w 246 245 229 0.088612
w 246 245 -229 0.0339185
w 246 -245 229 0.214698
w 246 -245 -229 0.594068
w 247 246 230 0.33887
w 247 246 -230 0.77992
w 247 -246 230 0.30246
w 247 -246 -230 0.195947
w 248 247 231 1
w 248 247 -231 0
w 248 -247 231 1
w 248 -247 -231 1
w 249 248 232 0.290639
w 249 248 -232 0.460202
w 249 -248 232 0.287376
w 249 -248 -232 0.38085
w 250 249 233 0.124483
w 250 249 -233 0.895987
w 250 -249 233 0.419896
w 250 -249 -233 0.305525
w 251 250 234 0.727395
w 251 250 -234 0.910293
w 251 -250 234 0.041492
w 251 -250 -234 0.157485
w 252 251 235 0.130104
w 252 251 -235 0.191404
w 252 -251 235 0.925849
w 252 -251 -235 0.724172
w 253 252 236 0.264719
w 253 252 -236 0.504092
w 253 -252 236 0.222483
w 253 -252 -236 0.460665
w 254 253 237 1
w 254 253 -237 0
w 254 -253 237 0
w 254 -253 -237 1
w 255 254 238 1
w 255 254 -238 0
w 255 -254 238 1
w 255 -254 -238 0
w 256 239 1
w 256 -239 0
w 257 256 240 0.152492
w 257 256 -240 0.0271346
w 257 -256 240 0.849916
w 257 -256 -240 0.846366
w 258 257 241 0.760209
w 258 257 -241 0.887858
w 258 -257 241 0.912015
w 258 -257 -241 0.471359
w 259 258 242 0
w 259 258 -242 0
w 259 -258 242 1
w 259 -258 -242 0
w 260 259 243 0.246226
w 260 259 -243 0.245924
w 260 -259 243 0.122592
w 260 -259 -243 0.249408
w 261 260 244 1
w 261 260 -244 1
w 261 -260 244 0
w 261 -260 -244 1
w 262 261 245 0.828767
w 262 261 -245 0.117431
w 262 -261 245 0.136671
w 262 -261 -245 0.436006
w 263 262 246 0.289163
w 263 262 -246 0.46314
w 263 -262 246 0.511738
w 263 -262 -246 0.135529
w 264 263 247 1
w 264 263 -247 0
w 264 -263 247 1
w 264 -263 -247 0
w 265 264 248 1
w 265 264 -248 0
w 265 -264 248 0
w 265 -264 -248 0
w 266 265 249 0.0297094
w 266 265 -249 0.502467
w 266 -265 249 0.925035
w 266 -265 -249 0.279118
w 267 266 250 0.850014
w 267 266 -250 0.844109
w 267 -266 250 0.92647
w 267 -266 -250 0.996786
w 268 267 251 0.806635
w 268 267 -251 0.825553
w 268 -267 251 0.659064
w 268 -267 -251 0.943306
w 269 268 252 1
w 269 268 -252 0
w 269 -268 252 0
w 269 -268 -252 1
w 270 269 253 1
w 270 269 -253 1
w 270 -269 253 1
w 270 -269 -253 0
w 271 270 254 0.432736
w 271 270 -254 0.305156
w 271 -270 254 0.988394
w 271 -270 -254 0.216219
w 272 271 255 0.790836
w 272 271 -255 0.245929
w 272 -271 255 0.0641663
w 272 -271 -255 0.715871
w 273 256 0.986127
w 273 -256 0.565885
w 274 273 257 0
w 274 273 -257 0
w 274 -273 257 1
w 274 -273 -257 1
w 275 274 258 0
w 275 274 -258 1
w 275 -274 258 1
w 275 -274 -258 1
w 276 275 259 0.374481
w 276 275 -259 0.723365
w 276 -275 259 0.263007
w 276 -275 -259 0.31685
w 277 276 260 0.654394
w 277 276 -260 0.388903
w 277 -276 260 0.675816
w 277 -276 -260 0.0871297
w 278 277 261 0.66421
w 278 277 -261 0.303349
w 278 -277 261 0.255758
w 278 -277 -261 0.455046
w 279 278 262 0.319924
w 279 278 -262 0.170917
w 279 -278 262 0.0743245
w 279 -278 -262 0.306051
w 280 279 263 0.44348
w 280 279 -263 0.218647
w 280 -279 263 0.299472
w 280 -279 -263 0.354269
w 281 280 264 0.687696
w 281 280 -264 0.924123
w 281 -280 264 0.600417
w 281 -280 -264 0.337478
w 282 281 265 0.495425
w 282 281 -265 0.711959
w 282 -281 265 0.538227
w 282 -281 -265 0.758432
w 283 282 266 0
w 283 282 -266 0
w 283 -282 266 1
w 283 -282 -266 1
w 284 283 267 1
w 284 283 -267 0
w 284 -283 267 1
w 284 -283 -267 1
w 285 284 268 0
w 285 284 -268 0
w 285 -284 268 0
w 285 -284 -268 1
w 286 285 269 0.0689539
w 286 285 -269 0.870387
w 286 -285 269 0.212151
w 286 -285 -269 0.368426
w 287 286 270 1
w 287 286 -270 0
w 287 -286 270 1
w 287 -286 -270 0
w 288 287 271 1
w 288 287 -271 0
w 288 -287 271 1
w 288 -287 -271 0
w 289 288 272 0
w 289 288 -272 1
w 289 -288 272 0
w 289 -288 -272 0